language Essence 1.3

letting bot_end be
        [27, 169, 163, 221, 67, 22, 91, 137, 142, 167, 168, 183, 100, 179, 147, 1, 130, 38, 196, 74, 114; int(1..21)]
letting bot_start be
        [44, 220, 224, 151, 222, 14, 201, 59, 212, 3, 227, 195, 39, 46, 2, 202, 19, 18, 101, 10, 4; int(1..21)]
letting bots be 21
letting buffer_col be 2
letting buffer_row be 2
letting corridor_size be 1
letting n_shelves_col be 3
letting n_shelves_row be 7
letting shelf_col_size be 2
letting shelf_row_size be 1
